NAME : portcgen-16-18
COMMENT : portcgen N=16, seed=18
TYPE : TSP
DIMENSION : 16
EDGE_WEIGHT_TYPE : EUC_2D
NODE_COORD_SECTION
1 309802 104066
2 -289384 471407
3 170182 618399
4 166106 115167
5 97916 187876
6 -202502 207900
7 -69433 348360
8 -409091 -374361
9 143950 282027
10 305526 195380
11 422847 -289544
12 128258 -420810
13 -80479 -78563
14 95737 311224
15 185296 -614776
16 -8828 335345
